NAME: ACTUAL_TOURS/amz0572
TYPE: TOUR
COMMENT: RouteID_3c8011d6-75d6-40aa-ba64-70fb4ecd2484
DIMENSION: 165
TOUR_SECTION
110
16
89
155
85
136
104
149
132
125
102
55
140
90
153
128
13
61
19
105
122
130
152
115
121
93
48
23
88
45
114
134
113
70
119
158
49
26
103
148
141
135
151
22
75
4
79
14
160
52
82
17
58
91
68
1
38
129
117
34
62
57
150
72
47
96
120
40
145
118
87
156
137
108
111
109
106
59
84
51
159
32
139
73
54
30
99
64
164
138
86
29
11
80
53
50
8
33
101
133
74
81
42
46
77
107
39
163
60
67
10
31
127
2
78
12
43
9
142
37
21
165
15
112
97
92
116
124
20
27
100
94
28
7
123
154
63
143
41
157
36
69
147
25
24
161
71
95
146
18
83
35
56
3
5
162
66
65
98
131
44
126
144
6
76
-1
EOF
